linear programming/gurobi/sddp/iter3_sub_1^2.sol
# Objective value = -1.2772727272727272e+02
q_2^2 1.5454545454545455e+01
I_1^2 0
B_1^2 5.4545454545454550e+00
theta_3^2 0
